NAME : mr17
COMMENT : 17-city problem (DISC)
TYPE : TSP
DIMENSION : 17
EDGE_WEIGHT_TYPE : EUC_2D
NODE_COORD_SECTION
1 30 60
2 54 49
3 20 29
4 7 30
5 79 57
6 66 40
7 64 79
8 58 42
9 4 15
10 36 16
11 95 6
12 7 72
13 87 30
14 88 20
15 6 84
16 66 57
17 56 9
EOF
